NAME : survivors
COMMENT : survivors
TYPE : TSP
DIMENSION : 9
EDGE_WEIGHT_TYPE : EUC_2D
NODE_COORD_SECTION
1 0 0
2 -22.5 22.5
3 -7.5 22.5
4 7.5 22.5
5 22.5 22.5
6 -22.5 37.5
7 -7.5 37.5
8 7.5 37.5
9 22.5 37.5